
#25210
param k := 4;
param n := 50;
param s := 3;
set E :=
(0,4)
(0,8)
(0,27)
(0,37)
(0,41)
(0,47)
(1,7)
(1,15)
(1,16)
(1,38)
(1,44)
(1,46)
(2,4)
(2,18)
(2,20)
(2,23)
(2,37)
(2,49)
(3,6)
(3,22)
(3,49)
(4,8)
(4,18)
